NAME : kroB100-C-3-0-a.24887.tour
COMMENT : Length = 24887
COMMENT : Found by LKH-3 [Keld Helsgaun] Tue Jul 30 13:14:11 2024
TYPE : TOUR
DIMENSION : 100
TOUR_SECTION
1
50
55
77
24
18
45
36
96
92
19
44
41
17
78
16
2
13
63
31
48
51
82
42
14
64
33
15
6
83
4
66
74
60
87
89
43
52
54
58
84
7
34
57
94
35
61
27
25
9
71
12
98
32
59
76
29
8
99
97
91
28
3
11
93
85
73
53
70
39
40
67
5
62
69
26
100
56
81
79
65
47
23
22
88
37
72
46
38
20
80
75
30
49
86
68
10
21
90
95
-1
EOF
